
Gurobi 11.0.3 (linux64) logging started Thu Nov 21 12:31:29 2024

Set parameter LogFile to value "/home/yihong/Coding/OR_SUC/SUC_results_bigM100000_thread4/case24_ieee_rts_theta0.5_epsilon0.05_gurobi_seed290000_num_gen100_N_WDR100_load_scaling_factor1_proposed_T24quadra_cost.txt"
Set parameter TimeLimit to value 3600
Gurobi Optimizer version 11.0.3 build v11.0.3rc0 (linux64 - "Ubuntu 20.04.6 LTS")

CPU model: AMD EPYC 7532 32-Core Processor, instruction set [SSE2|AVX|AVX2]
Thread count: 64 physical cores, 128 logical processors, using up to 4 threads

Optimize a model with 57558 rows, 29861 columns and 1315898 nonzeros
Model fingerprint: 0x0936a655
Model has 2400 quadratic constraints
Variable types: 27461 continuous, 2400 integer (2400 binary)
Coefficient statistics:
  Matrix range     [3e-04, 2e+03]
  QMatrix range    [2e-03, 8e-03]
  QLMatrix range   [2e-01, 6e+01]
  Objective range  [1e+00, 1e+00]
  Bounds range     [1e+00, 1e+00]
  RHS range        [1e+00, 9e+03]
Presolve removed 47057 rows and 12672 columns
Presolve time: 0.39s
Presolved: 10501 rows, 17189 columns, 58394 nonzeros
Presolved model has 2400 quadratic constraint(s)
Variable types: 14789 continuous, 2400 integer (2400 binary)

Root relaxation: objective 5.139200e+04, 8335 iterations, 0.24 seconds (0.34 work units)

    Nodes    |    Current Node    |     Objective Bounds      |     Work
 Expl Unexpl |  Obj  Depth IntInf | Incumbent    BestBd   Gap | It/Node Time

     0     0 51392.0012    0   24          - 51392.0012      -     -    0s
     0     0 343250.159    0  789          - 343250.159      -     -    1s
     0     0 357165.056    0  792          - 357165.056      -     -    1s
     0     0 634098.802    0  736          - 634098.802      -     -    1s
     0     0 634176.684    0  369          - 634176.684      -     -    1s
     0     0 634372.874    0  299          - 634372.874      -     -    1s
     0     0 634374.565    0  298          - 634374.565      -     -    1s
     0     0 634374.565    0  299          - 634374.565      -     -    1s
     0     0 634375.526    0  299          - 634375.526      -     -    2s
     0     2 634375.526    0  299          - 634375.526      -     -    2s
   111   163 634465.329   22  208          - 634380.077      -  63.9    5s
H  391   339                    634560.85484 634380.077  0.03%  37.9    6s
*  391   339             112    634560.85484 634380.077  0.03%  38.1    6s

Cutting planes:
  Gomory: 3
  Implied bound: 265
  MIR: 123
  Flow cover: 221

Explored 434 nodes (40141 simplex iterations) in 7.34 seconds (10.94 work units)
Thread count was 4 (of 128 available processors)

Solution count 2: 634561 634561 

Optimal solution found (tolerance 1.00e-03)
Warning: max constraint violation (1.1420e-07) exceeds tolerance
Best objective 6.345608548433e+05, best bound 6.343800765988e+05, gap 0.0285%
